#system setting #

units		real
boundary	p p p
atom_style	angle
bond_style      harmonic
angle_style   harmonic
neigh_modify delay 0 every 1 

pair_style lj/cut 20

# read model #
read_data ./pva_min.data 
#minimize 0.0 1.0e-8 1000 100000

# time integration settings #
timestep		4	# 4fs

# reset timestep #
reset_timestep 0

# run tensile test #
reset_timestep 0
thermo 10000
thermo_style custom step temp lx ly lz vol cpu
dump 1 all dcd 10000 out.dcd
dump_modify 1 unwrap yes
fix             1 all npt temp 300.0 300.0 200 x 1.0 -300 1000 y 1.0 1.0 1000 z 1.0 1.0 1000
run 100000