#system setting #

units		real
boundary	p p p
atom_style	angle
bond_style      harmonic
angle_style   harmonic
neigh_modify delay 0 every 1 

pair_style lj/cut 20

read_data ./model/test_ok.data 
minimize 0.0 1.0e-8 1000 100000

# time integration settings #
timestep		20	# 20fs

# thermosystem set #
velocity 		all create 500.0 4928459 dist gaussian
  
# reset timestep #
reset_timestep 0

# run cooling #
thermo 10000
fix				1 all npt temp 500.0 500.0 200 iso 1.0 1.0 1000
run 50000 
write_data ./model/test_m.data