#system set

units		real
boundary	p p p
atom_style	angle
bond_style      harmonic
angle_style   harmonic
neigh_modify delay 0 every 1
pair_style lj/cut 20

read_data	0.data

#minimize 

#minimize 0.0 1.0e-8 1000 100000

# time integration settings
timestep		4	# 1fs
#thermo 2500
#thermosystem set
velocity 		all create 400.0 4928459 dist gaussian
  

#fix				2 all nvt temp 300.0 300.0 200 
fix				2 all npt temp 300.0 300.0 200 iso 1.0 1.0 1000

#run 25000



















